5615
5490
5602
5573
5565
5636
5565
5555
5678
5560
5480
5398
5459
5545
5569
5586
5535
5620
5608
5526
5603
5506
5533
5584
5510
5589
5569
5483
5529
5497
5477
5512
5457
5505
5624
5540
5593
5551
5601
5489
5642
5587
5564
5514
5537
5568
5620
5532
5616
5574
5473
5536
5613
5432
5588
5462
5544
5577
5564
5598
5531
5463
5622
5562
5461
5622
5506
5557
5563
5504
5546
5514
5551
5527
5539
5516
5617
5603
5574
5596
5595
5498
5472
5621
5524
5324
5454
5530
5605
5552
5595
5567
5484
5573
5607
5590
5629
5668
5552
5578
